NAME : local_1
TYPE : ATSP
DIMENSION : 50
EDGE_WEIGHT_TYPE : EXPLICIT
EDGE_WEIGHT_FORMAT : FULL_MATRIX
EDGE_WEIGHT_SECTION
0 10000000 10000000 471 10000000 851 10000000 10000000 10000000 10000000 10000000 543 10000000 10000000 10000000 10000000 10000000 838 997 10000000 10000000 774 10000000 10000000 10000000 10000000 10000000 679 10000000 10000000 10000000 10000000 10000000 10000000 10000000 10000000 909 10000000 10000000 10000000 10000000 10000000 10000000 10000000 10000000 713 944 571 10000000 10000000 
0 0 617 920 10000000 933 10000000 10000000 383 10000000 10000000 10000000 995 564 10000000 10000000 10000000 10000000 10000000 10000000 10000000 10000000 10000000 10000000 10000000 10000000 10000000 10000000 10000000 10000000 10000000 10000000 874 10000000 10000000 10000000 10000000 10000000 10000000 10000000 10000000 10000000 822 633 10000000 10000000 10000000 1101 10000000 10000000 
0 617 0 10000000 846 10000000 10000000 10000000 344 10000000 870 10000000 409 507 10000000 10000000 10000000 10000000 10000000 10000000 10000000 10000000 10000000 10000000 10000000 922 10000000 10000000 10000000 10000000 673 900 865 10000000 10000000 10000000 10000000 10000000 847 859 767 708 270 802 10000000 10000000 10000000 10000000 10000000 10000000 
0 920 10000000 0 10000000 385 10000000 10000000 10000000 10000000 10000000 249 10000000 10000000 880 813 10000000 517 10000000 10000000 10000000 10000000 10000000 10000000 10000000 10000000 10000000 568 10000000 921 10000000 1083 819 10000000 10000000 10000000 10000000 10000000 10000000 10000000 10000000 10000000 10000000 586 10000000 1034 10000000 171 10000000 10000000 
0 10000000 846 10000000 0 964 341 10000000 10000000 10000000 270 10000000 769 730 10000000 10000000 10000000 10000000 10000000 10000000 10000000 10000000 10000000 10000000 10000000 817 808 10000000 414 634 349 253 558 10000000 10000000 10000000 10000000 10000000 10000000 10000000 10000000 637 962 770 10000000 10000000 10000000 10000000 10000000 10000000 
0 933 10000000 385 964 0 10000000 10000000 10000000 10000000 10000000 404 10000000 833 688 679 10000000 413 10000000 10000000 10000000 10000000 10000000 10000000 10000000 10000000 10000000 667 10000000 641 10000000 734 519 10000000 10000000 10000000 10000000 10000000 10000000 10000000 10000000 10000000 10000000 383 10000000 10000000 10000000 311 10000000 10000000 
0 10000000 10000000 10000000 341 10000000 0 10000000 10000000 10000000 318 10000000 978 10000000 10000000 10000000 10000000 10000000 10000000 10000000 10000000 10000000 10000000 10000000 849 834 543 10000000 242 690 520 501 841 10000000 10000000 10000000 10000000 10000000 10000000 10000000 10000000 734 10000000 10000000 10000000 10000000 10000000 10000000 10000000 10000000 
0 10000000 10000000 10000000 10000000 10000000 10000000 0 10000000 10000000 10000000 10000000 10000000 10000000 10000000 10000000 10000000 10000000 10000000 657 432 520 10000000 10000000 10000000 10000000 10000000 10000000 10000000 10000000 10000000 10000000 10000000 424 388 275 404 861 812 558 783 10000000 10000000 10000000 710 10000000 560 10000000 737 10000000 
0 383 344 10000000 10000000 10000000 10000000 10000000 0 10000000 10000000 10000000 726 588 10000000 10000000 10000000 10000000 10000000 10000000 10000000 10000000 10000000 10000000 10000000 10000000 10000000 10000000 10000000 10000000 10000000 10000000 997 10000000 10000000 10000000 10000000 10000000 10000000 932 758 10000000 500 843 10000000 10000000 10000000 10000000 10000000 10000000 
0 10000000 10000000 10000000 10000000 10000000 10000000 10000000 10000000 0 10000000 10000000 10000000 10000000 10000000 10000000 973 10000000 390 891 10000000 10000000 746 10000000 10000000 10000000 10000000 865 10000000 10000000 10000000 10000000 10000000 10000000 10000000 10000000 10000000 10000000 10000000 10000000 10000000 10000000 10000000 10000000 899 456 949 10000000 749 735 
0 10000000 870 10000000 270 10000000 318 10000000 10000000 10000000 0 10000000 662 904 10000000 10000000 10000000 10000000 10000000 10000000 10000000 10000000 10000000 947 812 596 601 10000000 521 850 208 514 812 10000000 10000000 10000000 10000000 799 910 10000000 10000000 433 908 981 10000000 10000000 10000000 10000000 10000000 10000000 
0 10000000 10000000 249 10000000 404 10000000 10000000 10000000 10000000 10000000 0 10000000 10000000 728 638 10000000 363 10000000 10000000 10000000 10000000 10000000 10000000 10000000 10000000 10000000 370 10000000 869 10000000 10000000 898 10000000 10000000 10000000 10000000 10000000 10000000 10000000 10000000 10000000 10000000 729 10000000 978 10000000 221 10000000 10000000 
0 995 409 10000000 769 10000000 978 10000000 726 10000000 662 10000000 0 810 10000000 10000000 10000000 10000000 10000000 10000000 10000000 10000000 10000000 10000000 10000000 564 10000000 10000000 10000000 10000000 459 923 10000000 10000000 10000000 10000000 10000000 691 507 733 764 348 278 10000000 10000000 10000000 10000000 10000000 10000000 10000000 
0 564 507 10000000 730 833 10000000 10000000 588 10000000 904 10000000 810 0 10000000 10000000 10000000 10000000 10000000 10000000 10000000 10000000 10000000 10000000 10000000 10000000 10000000 10000000 10000000 992 787 654 468 10000000 10000000 10000000 10000000 10000000 10000000 10000000 10000000 981 773 457 10000000 10000000 10000000 998 10000000 10000000 
0 10000000 10000000 880 10000000 688 10000000 10000000 10000000 10000000 10000000 728 10000000 10000000 0 145 10000000 368 10000000 10000000 10000000 10000000 10000000 10000000 10000000 10000000 10000000 579 816 403 10000000 813 856 10000000 10000000 10000000 10000000 10000000 10000000 10000000 10000000 10000000 10000000 948 10000000 10000000 10000000 717 10000000 10000000 
0 10000000 10000000 813 10000000 679 10000000 10000000 10000000 10000000 10000000 638 10000000 10000000 145 0 10000000 299 10000000 10000000 10000000 10000000 10000000 10000000 10000000 10000000 10000000 444 930 522 10000000 904 927 10000000 10000000 10000000 10000000 10000000 10000000 10000000 10000000 10000000 10000000 973 10000000 10000000 10000000 656 10000000 10000000 
0 10000000 10000000 10000000 10000000 10000000 10000000 10000000 10000000 973 10000000 10000000 10000000 10000000 10000000 10000000 0 10000000 792 903 10000000 10000000 421 341 316 843 694 10000000 10000000 10000000 10000000 10000000 10000000 10000000 10000000 10000000 10000000 791 10000000 10000000 10000000 10000000 10000000 10000000 712 10000000 10000000 10000000 789 295 
0 10000000 10000000 517 10000000 413 10000000 10000000 10000000 10000000 10000000 363 10000000 10000000 368 299 10000000 0 10000000 10000000 10000000 10000000 10000000 10000000 10000000 10000000 10000000 334 1083 551 10000000 827 769 10000000 10000000 10000000 10000000 10000000 10000000 10000000 10000000 10000000 10000000 734 10000000 10000000 10000000 363 10000000 10000000 
0 10000000 10000000 10000000 10000000 10000000 10000000 10000000 10000000 390 10000000 10000000 10000000 10000000 10000000 10000000 792 10000000 0 509 769 837 450 847 1002 10000000 10000000 10000000 10000000 10000000 10000000 10000000 10000000 10000000 810 10000000 998 10000000 10000000 10000000 10000000 10000000 10000000 10000000 514 294 628 10000000 359 510 
0 10000000 10000000 10000000 10000000 10000000 10000000 657 10000000 891 10000000 10000000 10000000 10000000 10000000 10000000 903 10000000 509 0 283 645 501 777 961 10000000 10000000 10000000 10000000 10000000 10000000 10000000 10000000 590 416 910 729 809 10000000 10000000 10000000 10000000 10000000 10000000 246 612 365 10000000 216 657 
0 10000000 10000000 10000000 10000000 10000000 10000000 432 10000000 10000000 10000000 10000000 10000000 10000000 10000000 10000000 10000000 10000000 769 283 0 638 689 816 10000000 908 10000000 10000000 10000000 10000000 10000000 10000000 10000000 320 348 687 646 701 823 823 10000000 10000000 10000000 10000000 348 831 444 10000000 421 841 
0 10000000 10000000 10000000 10000000 10000000 10000000 520 10000000 10000000 10000000 10000000 10000000 10000000 10000000 10000000 10000000 10000000 837 645 638 0 10000000 10000000 10000000 10000000 10000000 10000000 10000000 10000000 10000000 10000000 10000000 845 361 634 222 10000000 10000000 10000000 10000000 10000000 10000000 10000000 769 663 313 10000000 662 10000000 
0 10000000 10000000 10000000 10000000 10000000 10000000 10000000 10000000 746 10000000 10000000 10000000 10000000 10000000 10000000 421 10000000 450 501 689 10000000 0 446 581 888 10000000 10000000 10000000 10000000 10000000 10000000 10000000 882 910 10000000 10000000 754 10000000 10000000 10000000 10000000 10000000 10000000 365 718 819 10000000 404 159 
0 10000000 10000000 10000000 10000000 10000000 10000000 10000000 10000000 10000000 947 10000000 10000000 10000000 10000000 10000000 341 10000000 847 777 816 10000000 446 0 226 554 676 10000000 10000000 10000000 970 10000000 10000000 848 10000000 10000000 10000000 466 823 10000000 10000000 818 10000000 10000000 550 10000000 10000000 10000000 693 433 
0 10000000 10000000 10000000 10000000 10000000 849 10000000 10000000 10000000 812 10000000 10000000 10000000 10000000 10000000 316 10000000 1027 961 10000000 10000000 581 226 0 560 461 10000000 10000000 10000000 878 10000000 10000000 10000000 10000000 10000000 10000000 562 910 10000000 10000000 778 10000000 10000000 727 10000000 10000000 10000000 841 511 
0 10000000 922 10000000 817 10000000 834 10000000 10000000 10000000 596 10000000 564 10000000 10000000 10000000 843 10000000 10000000 10000000 908 10000000 888 554 560 0 690 10000000 10000000 10000000 523 10000000 10000000 799 10000000 10000000 10000000 222 404 873 10000000 284 798 10000000 784 10000000 10000000 10000000 931 908 
0 10000000 10000000 10000000 808 10000000 543 10000000 10000000 10000000 601 10000000 10000000 10000000 10000000 10000000 694 10000000 10000000 10000000 10000000 10000000 10000000 676 461 690 0 10000000 731 10000000 751 999 10000000 10000000 10000000 10000000 10000000 826 10000000 10000000 10000000 758 10000000 10000000 10000000 10000000 10000000 10000000 10000000 926 
0 10000000 10000000 568 10000000 667 10000000 10000000 10000000 865 10000000 370 10000000 10000000 579 444 10000000 334 10000000 10000000 10000000 10000000 10000000 10000000 10000000 10000000 10000000 0 10000000 853 10000000 10000000 10000000 10000000 10000000 10000000 10000000 10000000 10000000 10000000 10000000 10000000 10000000 989 10000000 851 10000000 469 10000000 10000000 
0 10000000 10000000 10000000 414 10000000 242 10000000 10000000 10000000 521 10000000 10000000 10000000 816 930 10000000 1033 10000000 10000000 10000000 10000000 10000000 10000000 10000000 10000000 731 10000000 0 496 699 445 762 10000000 10000000 10000000 10000000 10000000 10000000 10000000 10000000 942 10000000 10000000 10000000 10000000 10000000 10000000 10000000 10000000 
0 10000000 10000000 921 634 641 690 10000000 10000000 10000000 850 869 10000000 992 403 522 10000000 551 10000000 10000000 10000000 10000000 10000000 10000000 10000000 10000000 10000000 853 496 0 947 435 539 10000000 10000000 10000000 10000000 10000000 10000000 10000000 10000000 10000000 10000000 734 10000000 10000000 10000000 762 10000000 10000000 
0 10000000 673 10000000 349 10000000 520 10000000 10000000 10000000 208 10000000 459 787 10000000 10000000 10000000 10000000 10000000 10000000 10000000 10000000 10000000 970 878 523 751 10000000 699 947 0 562 795 10000000 10000000 10000000 10000000 722 764 10000000 10000000 295 699 990 10000000 10000000 10000000 10000000 10000000 10000000 
0 10000000 900 1018 253 734 501 10000000 10000000 10000000 514 10000000 923 654 813 904 10000000 827 10000000 10000000 10000000 10000000 10000000 10000000 10000000 10000000 999 10000000 445 435 562 0 340 10000000 10000000 10000000 10000000 10000000 10000000 10000000 10000000 841 10000000 583 10000000 10000000 10000000 859 10000000 10000000 
0 874 865 819 558 519 841 10000000 997 10000000 812 898 10000000 468 856 927 10000000 769 10000000 10000000 10000000 10000000 10000000 10000000 10000000 10000000 10000000 10000000 762 539 795 340 0 10000000 10000000 10000000 10000000 10000000 10000000 10000000 10000000 10000000 10000000 313 10000000 10000000 10000000 733 10000000 10000000 
0 10000000 10000000 10000000 10000000 10000000 10000000 424 10000000 10000000 10000000 10000000 10000000 10000000 10000000 10000000 10000000 10000000 10000000 590 320 845 882 848 10000000 799 10000000 10000000 10000000 10000000 10000000 10000000 10000000 0 584 635 790 594 595 582 890 992 10000000 10000000 560 10000000 732 10000000 690 10000000 
0 10000000 10000000 10000000 10000000 10000000 10000000 388 10000000 10000000 10000000 10000000 10000000 10000000 10000000 10000000 10000000 10000000 810 416 348 361 910 10000000 10000000 10000000 10000000 10000000 10000000 10000000 10000000 10000000 10000000 584 0 567 371 10000000 10000000 935 10000000 10000000 10000000 10000000 590 759 220 10000000 543 10000000 
0 10000000 10000000 10000000 10000000 10000000 10000000 275 10000000 10000000 10000000 10000000 10000000 10000000 10000000 10000000 10000000 10000000 10000000 910 687 634 10000000 10000000 10000000 10000000 10000000 10000000 10000000 10000000 10000000 10000000 10000000 635 567 0 457 10000000 976 582 722 10000000 10000000 10000000 983 10000000 751 10000000 10000000 10000000 
0 10000000 10000000 10000000 10000000 10000000 10000000 404 10000000 10000000 10000000 10000000 10000000 10000000 10000000 10000000 10000000 10000000 998 729 646 222 10000000 10000000 10000000 10000000 10000000 10000000 10000000 10000000 10000000 10000000 10000000 790 371 457 0 10000000 10000000 900 10000000 10000000 10000000 10000000 845 846 431 10000000 774 10000000 
0 10000000 10000000 10000000 10000000 10000000 10000000 861 10000000 10000000 799 10000000 691 10000000 10000000 10000000 791 10000000 10000000 809 701 10000000 754 466 562 222 826 10000000 10000000 10000000 722 10000000 10000000 594 10000000 10000000 10000000 0 363 786 10000000 483 876 10000000 593 10000000 10000000 10000000 798 806 
0 10000000 847 10000000 10000000 10000000 10000000 812 10000000 10000000 910 10000000 507 10000000 10000000 10000000 10000000 10000000 10000000 10000000 823 10000000 10000000 823 910 404 10000000 10000000 10000000 10000000 764 10000000 10000000 595 10000000 976 10000000 363 0 509 727 486 629 10000000 853 10000000 10000000 10000000 1075 10000000 
0 10000000 859 10000000 10000000 10000000 10000000 558 932 10000000 10000000 10000000 733 10000000 10000000 10000000 10000000 10000000 10000000 10000000 823 10000000 10000000 10000000 10000000 873 10000000 10000000 10000000 10000000 10000000 10000000 10000000 582 935 582 900 786 509 0 311 901 636 10000000 10000000 10000000 10000000 10000000 10000000 10000000 
0 10000000 767 10000000 10000000 10000000 10000000 783 758 10000000 10000000 10000000 764 10000000 10000000 10000000 10000000 10000000 10000000 10000000 10000000 10000000 10000000 10000000 10000000 10000000 10000000 10000000 10000000 10000000 10000000 10000000 10000000 890 10000000 722 10000000 10000000 727 311 0 10000000 565 10000000 10000000 10000000 10000000 10000000 10000000 10000000 
0 10000000 708 10000000 637 10000000 734 10000000 10000000 10000000 433 10000000 348 981 10000000 10000000 10000000 10000000 10000000 10000000 10000000 10000000 10000000 818 778 284 758 10000000 942 10000000 295 841 10000000 992 10000000 10000000 10000000 483 486 901 10000000 0 619 10000000 10000000 10000000 10000000 10000000 10000000 10000000 
0 822 270 10000000 962 10000000 10000000 10000000 500 10000000 908 10000000 278 773 10000000 10000000 10000000 10000000 10000000 10000000 10000000 10000000 10000000 10000000 10000000 798 10000000 10000000 10000000 10000000 699 10000000 10000000 10000000 10000000 10000000 10000000 876 629 636 565 619 0 10000000 10000000 10000000 10000000 10000000 10000000 10000000 
0 633 802 586 770 383 10000000 10000000 843 10000000 981 729 10000000 457 948 973 10000000 734 10000000 10000000 10000000 10000000 10000000 10000000 10000000 10000000 10000000 989 10000000 734 970 583 313 10000000 10000000 10000000 10000000 10000000 10000000 10000000 10000000 10000000 10000000 0 10000000 10000000 10000000 556 10000000 10000000 
0 10000000 10000000 10000000 10000000 10000000 10000000 710 10000000 899 10000000 10000000 10000000 10000000 10000000 10000000 712 10000000 514 246 348 769 365 550 727 772 10000000 10000000 10000000 10000000 10000000 10000000 10000000 560 590 983 845 593 853 10000000 10000000 10000000 10000000 10000000 0 661 549 10000000 191 507 
0 10000000 10000000 1037 10000000 10000000 10000000 10000000 10000000 456 10000000 978 10000000 10000000 10000000 10000000 10000000 10000000 294 612 831 663 718 10000000 10000000 10000000 10000000 851 10000000 10000000 10000000 10000000 10000000 10000000 759 10000000 846 10000000 10000000 10000000 10000000 10000000 10000000 10000000 661 0 548 985 474 785 
0 10000000 10000000 10000000 10000000 10000000 10000000 560 10000000 949 10000000 10000000 10000000 10000000 10000000 10000000 10000000 10000000 628 365 444 313 819 10000000 10000000 10000000 10000000 10000000 10000000 10000000 10000000 10000000 10000000 732 220 751 431 10000000 10000000 10000000 10000000 10000000 10000000 10000000 549 548 0 10000000 435 961 
0 994 10000000 171 10000000 311 10000000 10000000 10000000 10000000 10000000 221 10000000 998 717 656 10000000 363 10000000 10000000 10000000 10000000 10000000 10000000 10000000 10000000 10000000 469 10000000 762 10000000 859 733 10000000 10000000 10000000 10000000 10000000 10000000 10000000 10000000 10000000 10000000 556 10000000 981 10000000 0 10000000 10000000 
0 10000000 10000000 10000000 10000000 10000000 10000000 737 10000000 749 10000000 10000000 10000000 10000000 10000000 10000000 789 10000000 359 216 421 662 404 693 841 938 10000000 10000000 10000000 10000000 10000000 10000000 10000000 690 543 10000000 774 764 1037 10000000 10000000 10000000 10000000 10000000 191 474 435 10000000 0 538 
0 10000000 10000000 10000000 10000000 10000000 10000000 10000000 10000000 10000000 10000000 10000000 10000000 10000000 10000000 10000000 10000000 10000000 10000000 10000000 10000000 10000000 10000000 10000000 10000000 10000000 10000000 10000000 10000000 10000000 10000000 10000000 10000000 10000000 10000000 10000000 10000000 10000000 10000000 10000000 10000000 10000000 10000000 10000000 10000000 10000000 10000000 10000000 10000000 0 
EOF